This is Ipopt version 3.12.3, running with linear solver mumps.
NOTE: Other linear solvers might be more efficient (see Ipopt documentation).

Number of nonzeros in equality constraint Jacobian...:   295867
Number of nonzeros in inequality constraint Jacobian.:    86887
Number of nonzeros in Lagrangian Hessian.............:    56056

Total number of variables............................:    62291
                     variables with only lower bounds:        0
                variables with lower and upper bounds:        0
                     variables with only upper bounds:        0
Total number of equality constraints.................:    56056
Total number of inequality constraints...............:    74589
        inequality constraints with only lower bounds:     6149
   inequality constraints with lower and upper bounds:    62291
        inequality constraints with only upper bounds:     6149

iter    objective    inf_pr   inf_du lg(mu)  ||d||  lg(rg) alpha_du alpha_pr  ls
   0 2.4653376e+000 4.80e+002 1.68e+000  -1.0 0.00e+000    -  0.00e+000 0.00e+000   0
   1 2.1510375e+002 4.74e+001 6.01e+000  -1.0 5.14e+000    -  4.47e-001 1.00e+000h  1
   2 2.1405022e+002 8.80e+000 1.79e+001  -1.0 8.55e-001   0.0 9.57e-001 1.00e+000f  1
   3 2.1373711e+002 1.05e+000 4.98e+000  -1.0 2.28e-001   0.4 1.00e+000 1.00e+000f  1
   4 2.1273756e+002 1.09e+000 2.50e-001  -1.0 1.67e-001  -0.1 1.00e+000 1.00e+000f  1
   5 2.0788808e+002 3.69e+000 1.38e-001  -1.7 4.64e-001  -0.5 1.00e+000 1.00e+000f  1
   6 2.0606276e+002 7.95e+000 3.00e-001  -1.7 1.79e-001  -0.1 1.00e+000 1.00e+000f  1
   7 2.0119845e+002 9.25e+001 4.21e-001  -1.7 8.27e-001  -0.6 1.00e+000 8.86e-001f  1
   8 1.9938967e+002 3.24e+001 6.72e-001  -1.7 3.17e-001  -0.2 1.00e+000 1.00e+000f  1
   9 1.9708663e+002 1.84e+001 1.58e+000  -1.7 3.42e+000  -0.6 9.59e-001 4.38e-001f  1
iter    objective    inf_pr   inf_du lg(mu)  ||d||  lg(rg) alpha_du alpha_pr  ls
  10 1.9512242e+002 9.57e-001 9.43e-001  -1.7 2.46e-001  -0.2 1.00e+000 1.00e+000f  1
  11 1.8946527e+002 8.28e+000 2.43e-001  -1.7 5.07e-001  -0.7 1.00e+000 1.00e+000f  1
  12 1.8740829e+002 8.18e-001 1.23e-001  -1.7 1.88e-001  -0.3 1.00e+000 1.00e+000f  1
  13 1.8077569e+002 1.01e+001 5.96e-001  -2.5 5.16e-001  -0.7 1.00e+000 1.00e+000f  1
  14 1.7829412e+002 2.67e+000 9.45e-002  -2.5 1.92e-001  -0.3 1.00e+000 1.00e+000f  1
  15 1.7124237e+002 6.22e+001 1.50e+000  -2.5 5.68e-001  -0.8 1.00e+000 1.00e+000f  1
  16 1.6866600e+002 4.81e+000 2.55e+000  -2.5 4.84e-001  -0.4 1.00e+000 1.00e+000f  1
  17 1.6142309e+002 2.42e+001 2.59e+000  -2.5 7.05e-001  -0.8 1.00e+000 1.00e+000f  1
  18 1.5874954e+002 2.20e+000 6.61e-001  -2.5 4.11e-001  -0.4 1.00e+000 1.00e+000f  1
  19 1.5268288e+002 1.06e+002 5.20e+000  -2.5 1.70e+000  -0.9 1.00e+000 7.89e-001f  1
iter    objective    inf_pr   inf_du lg(mu)  ||d||  lg(rg) alpha_du alpha_pr  ls
  20 1.4991596e+002 2.42e+001 9.90e+000  -2.5 5.95e-001  -0.5 2.21e-002 1.00e+000f  1
  21 1.4476970e+002 1.94e+001 3.19e+000  -2.5 7.66e-001  -0.9 1.00e+000 6.57e-001f  1
  22 1.4197305e+002 2.80e+000 4.75e-001  -2.5 2.48e-001  -0.5 1.00e+000 1.00e+000f  1
  23 1.3422900e+002 1.26e+001 1.96e-001  -2.5 7.03e-001  -1.0 1.00e+000 1.00e+000f  1
  24 1.3139891e+002 4.99e+000 1.52e-001  -2.5 2.58e-001  -0.6 1.00e+000 1.00e+000f  1
  25 1.2637944e+002 2.84e+001 2.79e-001  -2.5 1.18e+000  -1.0 1.00e+000 6.30e-001f  1
  26 1.2351785e+002 1.81e+001 2.84e+000  -2.5 3.69e-001  -0.6 4.97e-002 1.00e+000f  1
  27 1.2248663e+002 5.14e+000 2.18e+000  -2.5 2.26e-001  -0.2 1.00e+000 1.00e+000h  1
  28 1.1943108e+002 1.66e+000 2.64e-001  -2.5 3.12e-001  -0.7 1.00e+000 1.00e+000f  1
  29 1.1828981e+002 6.04e-001 7.42e-002  -2.5 1.11e-001  -0.2 1.00e+000 1.00e+000f  1
iter    objective    inf_pr   inf_du lg(mu)  ||d||  lg(rg) alpha_du alpha_pr  ls
  30 1.1498202e+002 6.25e+000 2.90e-001  -2.5 3.96e-001  -0.7 1.00e+000 1.00e+000f  1
  31 1.1038419e+002 8.99e+001 2.39e+000  -2.5 2.82e+000  -1.2 1.00e+000 4.73e-001f  1
  32 1.0724606e+002 1.47e+001 7.92e+000  -2.5 6.24e-001  -0.8 1.43e-002 1.00e+000f  1
  33 1.0616523e+002 1.59e+000 2.73e+000  -2.5 2.51e-001  -0.3 1.00e+000 1.00e+000h  1
  34 1.0277683e+002 6.28e+000 7.00e-001  -2.5 3.99e-001  -0.8 1.00e+000 1.00e+000f  1
  35 1.0149385e+002 2.60e+000 1.79e-001  -2.5 1.43e-001  -0.4 1.00e+000 1.00e+000f  1
  36 9.7886085e+001 8.22e+000 2.45e-001  -2.5 3.99e-001  -0.9 1.00e+000 1.00e+000f  1
  37 9.6608078e+001 2.82e+000 4.19e-001  -2.5 1.44e-001  -0.4 1.00e+000 1.00e+000h  1
  38 9.3744915e+001 4.23e+000 2.52e-001  -2.5 4.15e-001  -0.9 1.00e+000 8.04e-001f  1
  39 9.2476273e+001 1.58e+000 7.67e-001  -2.5 1.88e-001  -0.5 1.00e+000 1.00e+000f  1
iter    objective    inf_pr   inf_du lg(mu)  ||d||  lg(rg) alpha_du alpha_pr  ls
  40 8.8876126e+001 4.39e+000 2.03e-001  -2.5 4.33e-001  -1.0 1.00e+000 1.00e+000f  1
  41 8.7527032e+001 2.56e+000 4.13e-001  -2.5 1.90e-001  -0.5 1.00e+000 1.00e+000f  1
  42 8.5842922e+001 9.78e+000 1.85e+000  -2.5 9.42e-001  -1.0 1.00e+000 4.37e-001f  1
  43 8.5655465e+001 2.49e+001 2.58e+001  -2.5 1.52e+002  -1.5 1.72e-002 1.49e-002f  1
  44 8.5070102e+001 3.01e+001 1.34e+001  -2.5 7.18e-001  -0.2 6.48e-001 1.00e+000h  1
  45 8.3637909e+001 1.21e+001 3.58e+000  -2.5 5.28e-001  -0.6 4.83e-001 1.00e+000h  1
  46 7.9450394e+001 2.68e+000 6.78e-001  -2.5 6.63e-001  -1.1 1.00e+000 1.00e+000f  1
  47 7.2684135e+001 3.47e+001 1.12e+000  -2.5 1.48e+000  -1.6 9.02e-001 6.30e-001f  1
  48 6.8922497e+001 5.62e+000 6.11e+000  -2.5 6.34e-001  -1.2 1.42e-002 1.00e+000f  1
  49 6.3387286e+001 3.05e+000 2.36e+000  -2.5 1.78e+000  -1.7 1.00e+000 5.92e-001f  1
iter    objective    inf_pr   inf_du lg(mu)  ||d||  lg(rg) alpha_du alpha_pr  ls
  50 6.0088521e+001 1.91e+000 2.12e-001  -2.5 5.18e-001  -1.2 1.00e+000 1.00e+000f  1
  51 5.5496056e+001 3.00e+001 1.14e+000  -2.5 2.37e+000  -1.7 1.00e+000 5.69e-001f  1
  52 5.5054058e+001 1.94e+000 5.08e-001  -2.5 1.49e-001  -0.4 1.00e+000 1.00e+000h  1
  53 5.3937411e+001 6.41e-001 1.12e-001  -2.5 2.05e-001  -0.9 1.00e+000 1.00e+000f  1
  54 5.0888005e+001 5.64e+001 1.57e+000  -2.5 8.77e-001  -1.3 1.00e+000 1.00e+000f  1
  55 4.3939163e+001 1.28e+002 6.00e+000  -2.5 3.37e+000  -1.8 1.00e+000 9.67e-001f  1
  56 4.1584930e+001 3.37e+001 1.32e+000  -2.5 6.19e-001  -1.4 1.00e+000 1.00e+000h  1
  57 3.6617683e+001 1.67e+000 6.67e-002  -2.5 1.04e+000  -1.9 1.00e+000 1.00e+000f  1
  58 3.5032714e+001 2.44e+000 9.84e-002  -2.5 3.67e-001  -1.4 1.00e+000 1.00e+000f  1
  59 3.1313621e+001 1.94e+000 1.95e-002  -2.5 9.42e-001  -1.9 1.00e+000 1.00e+000f  1
iter    objective    inf_pr   inf_du lg(mu)  ||d||  lg(rg) alpha_du alpha_pr  ls
  60 3.0093006e+001 1.32e+000 5.30e-002  -2.5 3.34e-001  -1.5 1.00e+000 1.00e+000h  1
  61 2.9658661e+001 3.09e-001 1.52e-002  -2.5 1.23e-001  -1.1 1.00e+000 1.00e+000h  1
  62 2.7601482e+001 7.48e+000 5.04e-001  -3.8 4.79e-001  -1.5 7.58e-001 1.00e+000f  1
  63 2.5033450e+001 5.31e+001 3.59e-001  -3.8 1.76e+000  -2.0 3.90e-001 5.92e-001f  1
  64 2.4248776e+001 2.59e+001 1.81e-001  -3.8 4.02e-001  -1.6 1.00e+000 5.06e-001h  1
  65 2.2847363e+001 1.56e+001 1.07e-001  -3.8 1.07e+000  -2.1 1.00e+000 3.95e-001h  1
  66 2.1919094e+001 4.41e+000 2.34e-002  -3.8 4.44e-001  -1.6 1.00e+000 7.11e-001h  1
  67 2.1207826e+001 3.42e+000 8.05e-002  -3.8 1.20e+000  -2.1 1.00e+000 2.26e-001f  1
  68 2.0267023e+001 7.47e-001 1.01e-002  -3.8 5.09e-001  -1.7 1.00e+000 7.81e-001h  1
  69 1.9856526e+001 1.56e-001 1.08e-002  -3.8 1.89e-001  -1.3 1.00e+000 9.52e-001h  1
iter    objective    inf_pr   inf_du lg(mu)  ||d||  lg(rg) alpha_du alpha_pr  ls
  70 1.8708571e+001 1.06e+000 1.01e-002  -3.8 5.53e-001  -1.7 1.00e+000 9.94e-001f  1
  71 1.8303605e+001 3.22e-001 1.13e-002  -3.8 2.33e-001  -1.3 1.00e+000 1.00e+000f  1
  72 1.7411515e+001 5.21e-001 8.46e-003  -3.8 4.81e-001  -1.8 1.00e+000 8.13e-001f  1
  73 1.6810336e+001 4.90e-001 5.13e-002  -3.8 1.16e+000  -2.3 1.00e+000 2.24e-001f  1
  74 1.4283383e+001 2.49e+000 9.50e-002  -3.8 2.77e+000  -2.7 1.00e+000 4.46e-001f  1
  75 1.3097957e+001 2.76e+000 2.69e-002  -3.8 1.11e+000  -2.3 1.00e+000 5.87e-001f  1
  76 1.2690274e+001 2.87e+000 2.38e-002  -3.8 4.11e-001  -1.9 1.00e+000 5.65e-001h  1
  77 1.2427312e+001 9.92e-001 1.11e-001  -3.8 1.68e-001  -1.5 1.00e+000 1.00e+000h  1
  78 1.1724215e+001 2.10e-001 1.12e-002  -3.8 4.46e-001  -1.9 1.00e+000 1.00e+000f  1
  79 1.1521114e+001 2.26e+001 2.61e-001  -3.8 7.50e+000  -2.4 2.09e-001 1.19e-001f  1
iter    objective    inf_pr   inf_du lg(mu)  ||d||  lg(rg) alpha_du alpha_pr  ls
  80 1.1428910e+001 8.42e+000 6.86e-001  -3.8 5.41e-001  -1.1 2.06e-001 1.00e+000h  1
  81 1.1167153e+001 2.92e+000 1.13e-001  -3.8 2.39e-001  -1.6 4.19e-001 1.00e+000h  1
  82 1.0472886e+001 8.15e-001 2.65e-002  -3.8 5.21e-001  -2.0 1.00e+000 1.00e+000h  1
  83 9.0620643e+000 2.54e+000 7.80e-003  -3.8 1.38e+000  -2.5 1.00e+000 9.13e-001f  1
  84 8.7797257e+000 5.61e+000 6.11e-002  -3.8 6.05e-001  -2.1 1.00e+000 5.66e-001h  1
  85 7.8275598e+000 2.78e+000 6.08e-002  -3.8 1.35e+000  -2.6 1.00e+000 8.05e-001f  1
  86 7.4385049e+000 9.90e-001 8.56e-002  -3.8 4.94e-001  -2.1 4.68e-001 1.00e+000h  1
  87 7.3008781e+000 3.64e-001 1.69e-002  -3.8 1.82e-001  -1.7 1.00e+000 1.00e+000h  1
  88 7.2503664e+000 1.06e-001 6.53e-003  -3.8 6.77e-002  -1.3 1.00e+000 1.00e+000h  1
  89 7.1059609e+000 5.43e-001 3.35e-003  -3.8 1.99e-001  -1.8 1.00e+000 1.00e+000h  1
iter    objective    inf_pr   inf_du lg(mu)  ||d||  lg(rg) alpha_du alpha_pr  ls
  90 6.7255483e+000 1.50e+000 2.72e-002  -3.8 5.60e-001  -2.3 1.00e+000 1.00e+000h  1
  91 6.5952122e+000 7.33e-001 1.13e-002  -3.8 2.05e-001  -1.8 1.00e+000 1.00e+000h  1
  92 6.2519692e+000 3.78e-001 1.54e-002  -3.8 5.75e-001  -2.3 1.00e+000 1.00e+000h  1
  93 5.5256546e+000 3.76e+000 7.49e-003  -3.8 1.42e+000  -2.8 1.00e+000 1.00e+000f  1
  94 5.3090525e+000 6.06e-001 2.21e-003  -3.8 4.97e-001  -2.4 1.00e+000 1.00e+000h  1
  95 4.8496993e+000 3.03e+000 4.47e-003  -3.8 1.21e+000  -2.8 1.00e+000 1.00e+000h  1
  96 4.7129167e+000 4.01e-001 3.29e-003  -3.8 4.22e-001  -2.4 1.00e+000 1.00e+000h  1
  97 4.6652086e+000 2.45e+000 5.63e-003  -3.8 2.42e-001  -2.0 1.00e+000 1.00e+000h  1
  98 4.5420815e+000 4.91e-001 1.28e-002  -3.8 4.21e-001  -2.5 1.00e+000 1.00e+000h  1
  99 4.4742945e+000 5.78e+000 3.77e-002  -3.8 1.47e+000  -2.9 7.73e-001 2.46e-001h  1
iter    objective    inf_pr   inf_du lg(mu)  ||d||  lg(rg) alpha_du alpha_pr  ls
 100 4.0249427e+000 7.01e+000 2.11e-002  -3.8 2.36e+000  -3.4 7.75e-001 1.00e+000f  1
 101 3.8203530e+000 1.81e+001 2.41e-002  -3.8 3.55e+000  -3.9 9.28e-001 7.03e-001h  1
 102 3.8096506e+000 1.55e+001 1.19e-001  -3.8 1.64e+000  -3.5 6.05e-001 1.69e-001h  1
 103 3.7633793e+000 8.03e+000 1.92e-001  -3.8 4.23e+000  -3.9 2.00e-001 5.83e-001h  1
 104 3.7426979e+000 5.09e+000 2.39e-001  -3.8 2.77e+000  -3.5 4.10e-001 1.00e+000h  1
 105 3.7431786e+000 2.44e+000 1.56e-001  -3.8 2.37e-001  -2.2 6.17e-001 1.00e+000h  1
 106 3.7411457e+000 2.42e-001 9.25e-003  -3.8 2.67e-001  -2.7 1.00e+000 1.00e+000h  1
 107 3.7383421e+000 9.57e+000 6.88e-003  -3.8 3.91e-001  -3.1 1.00e+000 1.00e+000h  1
 108 3.7402503e+000 2.26e+001 1.76e-002  -3.8 9.16e-001  -3.6 9.96e-001 1.00e+000h  1
 109 3.7639878e+000 4.26e+000 5.56e-004  -3.8 1.69e+000  -4.1 1.00e+000 1.00e+000h  1
iter    objective    inf_pr   inf_du lg(mu)  ||d||  lg(rg) alpha_du alpha_pr  ls
 110 3.8190011e+000 1.25e+002 1.95e-002  -3.8 5.25e+000  -4.6 8.30e-001 8.65e-001h  1
 111 3.8554218e+000 9.30e+001 1.48e-002  -3.8 6.77e+000    -  5.31e-001 2.56e-001h  1
 112 3.8603349e+000 6.61e+001 1.52e-002  -3.8 3.29e+000  -4.1 4.34e-001 2.90e-001h  1
 113 3.8633504e+000 2.45e+001 1.48e-001  -3.8 1.82e+000  -2.8 7.14e-001 1.00e+000h  1
 114 3.8715530e+000 9.67e+000 1.37e-001  -3.8 9.26e-001  -2.4 1.00e+000 1.00e+000H  1
 115 3.8659324e+000 4.12e+000 3.40e-002  -3.8 3.08e-001  -2.0 1.00e+000 1.00e+000h  1
 116 3.8629730e+000 2.19e+000 5.39e-002  -3.8 5.23e-001  -2.4 1.00e+000 1.00e+000h  1
 117 3.8638539e+000 1.36e-001 1.09e-002  -3.8 1.76e-001  -2.9 1.00e+000 1.00e+000h  1
 118 3.8672793e+000 8.97e-002 9.43e-004  -3.8 1.85e-001  -3.4 1.00e+000 1.00e+000h  1
 119 3.8768405e+000 2.70e+000 2.99e-003  -3.8 4.38e-001  -3.9 1.00e+000 1.00e+000h  1
iter    objective    inf_pr   inf_du lg(mu)  ||d||  lg(rg) alpha_du alpha_pr  ls
 120 3.8804345e+000 9.51e-001 3.48e-003  -3.8 2.07e-001  -3.4 1.00e+000 1.00e+000h  1
 121 3.8899495e+000 1.08e+000 7.90e-004  -3.8 3.33e-001  -3.9 1.00e+000 1.00e+000h  1
 122 3.9114207e+000 2.15e+001 2.58e-002  -3.8 1.80e+000  -4.4 5.69e-001 1.00e+000h  1
 123 3.9153224e+000 1.25e+001 1.19e-002  -3.8 1.40e+000  -4.0 9.09e-001 4.62e-001h  2
 124 3.9178683e+000 4.91e+000 1.67e-002  -3.8 1.08e+000  -3.5 4.46e-001 1.00e+000h  1
 125 3.9188675e+000 3.01e-001 4.17e-003  -3.8 1.74e-001  -3.1 1.00e+000 1.00e+000h  1
 126 3.9217882e+000 1.15e-001 5.19e-004  -3.8 1.73e-001  -3.6 1.00e+000 1.00e+000h  1
 127 3.9294517e+000 7.84e-001 2.93e-004  -3.8 2.71e-001  -4.1 1.00e+000 1.00e+000h  1
 128 3.9321835e+000 4.69e-001 9.28e-004  -3.8 1.58e-001  -3.6 1.00e+000 1.00e+000h  1
 129 3.9391721e+000 5.21e+000 1.66e-003  -3.8 6.11e-001  -4.1 1.00e+000 1.00e+000h  1
iter    objective    inf_pr   inf_du lg(mu)  ||d||  lg(rg) alpha_du alpha_pr  ls
 130 3.9532316e+000 1.17e+001 6.69e-003  -3.8 1.70e+000  -4.6 8.74e-001 1.00e+000h  1
 131 3.9540867e+000 1.68e+000 2.16e-002  -3.8 8.03e-001  -3.3 4.61e-001 1.00e+000h  1
 132 3.9559035e+000 1.18e-001 7.87e-004  -3.8 1.97e-001  -3.8 1.00e+000 1.00e+000h  1
 133 3.9605296e+000 8.10e-001 5.40e-004  -3.8 2.83e-001  -4.2 1.00e+000 1.00e+000h  1
 134 3.9640271e+000 1.34e+001 5.16e-003  -3.8 2.51e+000  -4.7 7.64e-001 4.19e-001h  2
 135 3.9645021e+000 3.25e+000 5.24e-003  -3.8 4.58e-001  -3.4 1.00e+000 1.00e+000h  1
 136 3.9644483e+000 3.23e+000 5.20e-003  -3.8 2.39e+001  -3.9 3.82e-002 6.66e-003h  4
 137 3.9650311e+000 1.26e-001 4.18e-004  -3.8 1.28e-001  -3.4 1.00e+000 1.00e+000h  1
 138 3.9666086e+000 8.52e-001 4.95e-004  -3.8 2.03e-001  -3.9 1.00e+000 1.00e+000h  1
 139 3.9703660e+000 5.35e+000 2.60e-003  -3.8 7.85e-001  -4.4 1.00e+000 1.00e+000h  1
iter    objective    inf_pr   inf_du lg(mu)  ||d||  lg(rg) alpha_du alpha_pr  ls
 140 3.9716181e+000 1.61e+000 5.04e-004  -3.8 2.61e-001  -4.0 1.00e+000 1.00e+000h  1
 141 3.9746468e+000 2.18e+000 1.55e-003  -3.8 4.60e-001  -4.4 1.00e+000 1.00e+000h  1
 142 3.9756774e+000 1.93e-001 4.01e-004  -3.8 2.29e-001  -4.0 1.00e+000 1.00e+000h  1
 143 3.9802914e+000 9.07e+000 3.68e-003  -3.8 3.51e+000    -  1.00e+000 4.46e-001h  2
 144 3.9866328e+000 5.80e+000 9.79e-004  -3.8 2.28e+000    -  1.00e+000 1.00e+000h  1
 145 3.9865785e+000 5.87e-001 2.44e-004  -3.8 8.08e-001    -  1.00e+000 1.00e+000h  1
 146 3.9865826e+000 3.33e-001 3.84e-005  -3.8 1.90e-001    -  1.00e+000 1.00e+000h  1
 147 3.9865787e+000 7.30e-003 6.79e-007  -3.8 2.88e-002    -  1.00e+000 1.00e+000h  1
 148 2.9085681e+000 5.37e+001 5.41e-003  -5.7 1.43e+001    -  5.02e-001 4.40e-001f  1
 149 2.7461573e+000 4.90e+001 4.94e-003  -5.7 2.61e+001    -  9.62e-002 8.69e-002h  1
iter    objective    inf_pr   inf_du lg(mu)  ||d||  lg(rg) alpha_du alpha_pr  ls
 150 2.3373722e+000 2.71e+001 2.27e-002  -5.7 3.13e+000  -4.5 1.07e-001 1.00e+000h  1
 151 2.3083687e+000 2.19e+001 1.51e-002  -5.7 1.29e+000  -4.1 4.40e-001 1.92e-001h  1
 152 2.2468223e+000 1.76e+000 1.06e-002  -5.7 1.12e+000  -3.6 5.78e-001 1.00e+000h  1
 153 2.2238648e+000 3.87e-002 8.74e-004  -5.7 2.36e-001  -3.2 1.00e+000 1.00e+000h  1
 154 2.1811217e+000 1.64e-001 2.51e-004  -5.7 6.73e-001  -3.7 1.00e+000 6.45e-001h  1
 155 2.1286851e+000 4.05e-001 7.41e-004  -5.7 1.66e+000  -4.2 9.66e-001 2.86e-001h  1
 156 2.0242076e+000 3.42e+000 1.48e-003  -5.7 4.11e+000  -4.6 8.55e-001 2.28e-001h  1
 157 2.0072443e+000 1.09e+001 1.71e-003  -5.7 9.18e+001  -5.1 3.16e-002 1.81e-002h  1
 158 1.8761132e+000 2.15e+001 1.73e-003  -5.7 2.60e+001  -5.6 5.71e-002 8.61e-002h  1
 159 1.7756116e+000 2.03e+001 1.63e-003  -5.7 3.87e+001  -6.1 1.37e-001 5.69e-002h  1
iter    objective    inf_pr   inf_du lg(mu)  ||d||  lg(rg) alpha_du alpha_pr  ls
 160 1.6177360e+000 1.76e+001 1.87e-003  -5.7 1.15e+001  -5.6 6.64e-001 1.30e-001h  1
 161 1.4876988e+000 1.39e+001 2.37e-003  -5.7 6.80e+000  -5.2 1.00e+000 2.09e-001h  1
 162 1.3830907e+000 1.20e+001 2.89e-003  -5.7 9.48e+000  -5.7 1.00e+000 1.36e-001h  1
 163 1.2184936e+000 1.13e+001 1.85e-003  -5.7 5.42e+000  -5.3 1.00e+000 4.19e-001h  1
 164 1.1554370e+000 9.31e+000 2.14e-003  -5.7 6.05e+000  -5.7 1.00e+000 1.65e-001h  1
 165 1.0741182e+000 5.19e+000 1.44e-003  -5.7 3.61e+000  -5.3 1.00e+000 4.15e-001h  1
 166 1.0202335e+000 1.32e+000 4.24e-004  -5.7 1.63e+000  -4.9 1.00e+000 7.11e-001h  1
 167 9.9277645e-001 7.95e-001 7.32e-004  -5.7 3.29e+000  -5.4 1.00e+000 3.36e-001h  1
 168 9.6854353e-001 5.05e-001 3.34e-004  -5.7 1.23e+000  -4.9 1.00e+000 7.48e-001h  1
 169 9.6113630e-001 4.13e-001 4.20e-004  -5.7 2.73e+000  -5.4 1.00e+000 2.32e-001h  1
iter    objective    inf_pr   inf_du lg(mu)  ||d||  lg(rg) alpha_du alpha_pr  ls
 170 9.4632180e-001 7.69e-001 5.00e-005  -5.7 8.41e-001  -5.0 1.00e+000 1.00e+000h  1
 171 9.4094729e-001 1.64e+000 1.98e-004  -5.7 3.41e+000  -5.5 1.00e+000 4.77e-001h  1
 172 9.3669287e-001 6.85e-001 5.78e-005  -5.7 1.29e+000  -5.0 1.00e+000 1.00e+000h  1
 173 9.3559159e-001 1.85e-001 2.04e-005  -5.7 5.73e-001  -4.6 1.00e+000 1.00e+000h  1
 174 9.3464718e-001 2.13e+000 2.98e-004  -5.7 3.04e+000  -5.1 1.00e+000 5.61e-001h  1
 175 9.3282679e-001 7.64e-001 1.36e-004  -5.7 2.26e+000  -5.6 1.00e+000 1.00e+000h  1
 176 9.3270997e-001 5.43e-001 9.85e-004  -5.7 1.36e+000  -5.1 1.00e+000 2.82e-001h  1
 177 9.3260096e-001 6.99e-001 8.69e-004  -5.7 1.05e+001    -  5.03e-002 7.03e-002h  1
 178 9.3243471e-001 1.36e-001 1.46e-004  -5.7 3.35e-001  -4.7 1.00e+000 1.00e+000h  1
 179 9.3212612e-001 9.62e-002 1.13e-003  -5.7 5.43e+000    -  1.00e+000 3.19e-001h  1
iter    objective    inf_pr   inf_du lg(mu)  ||d||  lg(rg) alpha_du alpha_pr  ls
 180 9.3176765e-001 8.34e-002 6.23e-005  -5.7 2.85e+000    -  1.00e+000 9.20e-001h  1
 181 9.3176072e-001 4.05e-003 3.35e-006  -5.7 5.31e-001  -5.2 1.00e+000 1.00e+000f  1
 182 9.3175460e-001 1.64e-002 4.26e-006  -5.7 1.61e-001  -5.7 1.00e+000 1.00e+000h  1
 183 9.3175278e-001 5.63e-003 1.61e-006  -5.7 7.78e-002  -5.3 1.00e+000 1.00e+000h  1
 184 9.3175104e-001 1.65e-002 7.47e-006  -5.7 4.92e-001  -5.7 1.00e+000 2.50e-001h  3
 185 9.3174849e-001 3.53e-002 2.14e-005  -5.7 1.00e+000  -6.2 1.00e+000 1.57e-001h  3
 186 9.3174055e-001 7.33e-002 2.31e-005  -5.7 3.80e-001    -  1.00e+000 1.00e+000H  1
 187 9.3173733e-001 1.20e-002 9.15e-006  -5.7 7.31e-002    -  1.00e+000 1.00e+000h  1
 188 9.3173764e-001 1.39e-004 8.49e-008  -5.7 1.56e-002    -  1.00e+000 1.00e+000h  1
 189 9.3173765e-001 5.54e-008 3.83e-011  -5.7 2.57e-004    -  1.00e+000 1.00e+000h  1
iter    objective    inf_pr   inf_du lg(mu)  ||d||  lg(rg) alpha_du alpha_pr  ls
 190 9.2524400e-001 4.09e-001 5.26e-004  -7.0 2.84e+000    -  3.45e-001 1.96e-001f  1
 191 9.2478495e-001 5.31e-001 7.13e-004  -7.0 8.85e+001  -6.7 8.61e-002 1.74e-002h  1
 192 9.2459947e-001 5.29e-001 8.48e-004  -7.0 3.89e+001    -  5.88e-002 7.06e-003h  1
 193 9.2413886e-001 6.13e-001 1.47e-003  -7.0 8.87e+000  -5.4 2.97e-001 2.15e-002h  1
 194 9.2391989e-001 1.49e+000 1.45e-003  -7.0 4.30e+001  -5.8 9.99e-004 8.58e-003h  1
 195 9.2342632e-001 1.45e+000 1.97e-003  -7.0 1.73e+001  -5.4 3.28e-001 2.32e-002h  1
 196 9.1406770e-001 9.93e-001 1.07e-003  -7.0 2.04e+000    -  2.66e-001 3.73e-001h  1
 197 9.0715583e-001 6.39e-001 6.88e-004  -7.0 1.36e+000    -  6.22e-001 5.04e-001h  1
 198 9.0568252e-001 4.92e-001 3.78e-004  -7.0 9.89e-001    -  4.28e-002 2.53e-001h  1
 199 9.0376881e-001 2.80e-001 4.11e-004  -7.0 7.33e-001    -  8.13e-001 4.75e-001h  1
iter    objective    inf_pr   inf_du lg(mu)  ||d||  lg(rg) alpha_du alpha_pr  ls
 200 9.0252179e-001 1.04e-001 2.58e-004  -7.0 5.61e-001    -  3.86e-001 6.92e-001h  1
 201 9.0222766e-001 3.01e-001 9.89e-005  -7.0 1.62e+000    -  7.62e-001 6.03e-001h  1
 202 9.0204323e-001 7.86e-002 9.52e-006  -7.0 9.85e-001    -  1.00e+000 1.00e+000h  1
 203 9.0204359e-001 2.46e-003 4.21e-007  -7.0 1.48e-001    -  1.00e+000 1.00e+000h  1
 204 9.0204356e-001 7.88e-005 1.36e-008  -7.0 2.46e-002    -  1.00e+000 1.00e+000h  1
 205 9.0204356e-001 3.33e-008 5.18e-012  -7.0 6.72e-004    -  1.00e+000 1.00e+000h  1

Number of Iterations....: 205

                                   (scaled)                 (unscaled)
Objective...............:  9.0204355683219228e-001   9.0204355683219228e-001
Dual infeasibility......:  5.1761462784960088e-012   5.1761462784960088e-012
Constraint violation....:  9.5977025652079187e-009   3.3280529443402429e-008
Complementarity.........:  9.0909634931357361e-008   9.0909634931357361e-008
Overall NLP error.......:  9.0909634931357361e-008   9.0909634931357361e-008


Number of objective function evaluations             = 228
Number of objective gradient evaluations             = 206
Number of equality constraint evaluations            = 228
Number of inequality constraint evaluations          = 228
Number of equality constraint Jacobian evaluations   = 206
Number of inequality constraint Jacobian evaluations = 206
Number of Lagrangian Hessian evaluations             = 205
Total CPU secs in IPOPT (w/o function evaluations)   =    127.112
Total CPU secs in NLP function evaluations           =     16.468

EXIT: Optimal Solution Found.
               t_proc [s]   t_wall [s]    n_eval
       nlp_f          0.2        0.206       228
       nlp_g         1.16         1.16       228
  nlp_grad_f        0.417        0.416       207
  nlp_hess_l         6.61         6.61       205
   nlp_jac_g         7.85         7.84       207
      solver          144          144         1
